c "379989.clq"
p edge 196 2880
e 1 17
e 1 21
e 1 24
e 1 27
e 1 31
e 1 42
e 1 45
e 1 47
e 1 51
e 1 54
e 1 67
e 1 80
e 1 90
e 1 97
e 1 106
e 1 119
e 1 178
e 1 185
e 2 17
e 2 18
e 2 19
e 2 20
e 2 21
e 2 22
e 2 25
e 2 26
e 2 28
e 2 29
e 2 30
e 2 31
e 2 32
e 2 33
e 2 37
e 2 39
e 2 40
e 2 47
e 2 49
e 2 53
e 2 57
e 2 64
e 2 83
e 2 108
e 2 110
e 2 123
e 2 130
e 2 147
e 2 153
e 2 160
e 2 164
e 2 172
e 2 179
e 2 189
e 3 17
e 3 18
e 3 19
e 3 20
e 3 21
e 3 26
e 3 27
e 3 28
e 3 29
e 3 33
e 3 34
e 3 35
e 3 36
e 3 42
e 3 43
e 3 48
e 3 52
e 3 53
e 3 58
e 3 60
e 3 62
e 3 64
e 3 70
e 3 79
e 3 86
e 3 88
e 3 89
e 3 93
e 3 97
e 3 99
e 3 106
e 3 111
e 3 113
e 3 122
e 3 124
e 3 125
e 3 128
e 3 131
e 3 139
e 3 140
e 3 143
e 3 161
e 3 166
e 3 179
e 3 188
e 3 192
e 3 195
e 4 17
e 4 18
e 4 20
e 4 22
e 4 23
e 4 25
e 4 27
e 4 29
e 4 32
e 4 33
e 4 34
e 4 40
e 4 44
e 4 49
e 4 54
e 4 55
e 4 61
e 4 65
e 4 66
e 4 67
e 4 72
e 4 78
e 4 98
e 4 115
e 4 124
e 4 128
e 4 130
e 4 132
e 4 137
e 4 144
e 4 151
e 4 157
e 4 162
e 4 164
e 4 168
e 4 181
e 4 183
e 5 17
e 5 18
e 5 19
e 5 20
e 5 22
e 5 24
e 5 35
e 5 38
e 5 46
e 5 48
e 5 67
e 5 70
e 5 71
e 5 77
e 5 85
e 5 100
e 5 104
e 5 108
e 5 144
e 5 154
e 5 160
e 5 166
e 5 179
e 5 184
e 6 17
e 6 18
e 6 19
e 6 20
e 6 23
e 6 25
e 6 26
e 6 27
e 6 32
e 6 34
e 6 36
e 6 39
e 6 42
e 6 43
e 6 65
e 6 73
e 6 76
e 6 91
e 6 94
e 6 107
e 6 130
e 6 138
e 6 147
e 6 153
e 6 157
e 6 169
e 6 182
e 7 17
e 7 18
e 7 19
e 7 21
e 7 22
e 7 23
e 7 24
e 7 25
e 7 26
e 7 29
e 7 30
e 7 33
e 7 37
e 7 39
e 7 42
e 7 45
e 7 46
e 7 54
e 7 57
e 7 58
e 7 62
e 7 66
e 7 69
e 7 71
e 7 78
e 7 79
e 7 81
e 7 84
e 7 90
e 7 97
e 7 102
e 7 109
e 7 113
e 7 129
e 7 131
e 7 132
e 7 159
e 7 164
e 7 176
e 7 193
e 8 17
e 8 18
e 8 19
e 8 20
e 8 21
e 8 22
e 8 23
e 8 24
e 8 25
e 8 27
e 8 30
e 8 31
e 8 35
e 8 37
e 8 40
e 8 42
e 8 45
e 8 58
e 8 59
e 8 61
e 8 72
e 8 81
e 8 84
e 8 89
e 8 90
e 8 93
e 8 94
e 8 99
e 8 104
e 8 109
e 8 112
e 8 123
e 8 125
e 8 128
e 8 135
e 8 152
e 8 153
e 8 165
e 8 170
e 8 182
e 8 194
e 9 17
e 9 18
e 9 19
e 9 20
e 9 21
e 9 22
e 9 24
e 9 26
e 9 28
e 9 30
e 9 32
e 9 33
e 9 36
e 9 38
e 9 39
e 9 48
e 9 51
e 9 52
e 9 71
e 9 92
e 9 93
e 9 101
e 9 121
e 9 124
e 9 125
e 9 126
e 9 128
e 9 141
e 9 162
e 9 168
e 9 169
e 9 172
e 9 186
e 9 189
e 9 193
e 9 194
e 10 17
e 10 18
e 10 19
e 10 20
e 10 21
e 10 23
e 10 24
e 10 25
e 10 27
e 10 28
e 10 29
e 10 30
e 10 31
e 10 32
e 10 40
e 10 41
e 10 42
e 10 43
e 10 47
e 10 52
e 10 54
e 10 66
e 10 67
e 10 74
e 10 82
e 10 95
e 10 100
e 10 112
e 10 119
e 10 120
e 10 128
e 10 134
e 10 138
e 10 149
e 10 161
e 10 163
e 10 171
e 10 177
e 11 17
e 11 18
e 11 19
e 11 21
e 11 22
e 11 23
e 11 24
e 11 26
e 11 27
e 11 28
e 11 30
e 11 34
e 11 35
e 11 36
e 11 39
e 11 42
e 11 43
e 11 44
e 11 50
e 11 53
e 11 55
e 11 57
e 11 59
e 11 61
e 11 66
e 11 71
e 11 78
e 11 93
e 11 94
e 11 99
e 11 102
e 11 109
e 11 110
e 11 127
e 11 135
e 11 136
e 11 137
e 11 146
e 11 153
e 11 160
e 11 169
e 11 172
e 11 175
e 11 176
e 11 189
e 11 194
e 12 17
e 12 18
e 12 19
e 12 20
e 12 21
e 12 24
e 12 28
e 12 31
e 12 34
e 12 37
e 12 38
e 12 42
e 12 44
e 12 46
e 12 51
e 12 58
e 12 63
e 12 67
e 12 72
e 12 74
e 12 75
e 12 76
e 12 79
e 12 104
e 12 111
e 12 117
e 12 118
e 12 124
e 12 135
e 12 147
e 12 150
e 12 154
e 12 170
e 12 187
e 12 192
e 13 17
e 13 18
e 13 19
e 13 20
e 13 21
e 13 22
e 13 23
e 13 27
e 13 28
e 13 29
e 13 31
e 13 34
e 13 36
e 13 44
e 13 57
e 13 83
e 13 84
e 13 86
e 13 92
e 13 104
e 13 107
e 13 111
e 13 113
e 13 121
e 13 135
e 13 137
e 13 152
e 13 159
e 13 165
e 13 172
e 13 181
e 13 189
e 13 193
e 14 17
e 14 18
e 14 19
e 14 20
e 14 22
e 14 23
e 14 28
e 14 39
e 14 41
e 14 46
e 14 52
e 14 57
e 14 58
e 14 61
e 14 69
e 14 91
e 14 96
e 14 105
e 14 106
e 14 113
e 14 116
e 14 121
e 14 125
e 14 130
e 14 150
e 14 180
e 15 17
e 15 18
e 15 19
e 15 20
e 15 21
e 15 22
e 15 23
e 15 24
e 15 25
e 15 30
e 15 33
e 15 34
e 15 40
e 15 43
e 15 44
e 15 47
e 15 49
e 15 50
e 15 53
e 15 73
e 15 83
e 15 90
e 15 98
e 15 101
e 15 103
e 15 107
e 15 115
e 15 117
e 15 119
e 15 142
e 15 184
e 15 188
e 16 17
e 16 18
e 16 19
e 16 20
e 16 21
e 16 22
e 16 23
e 16 25
e 16 26
e 16 28
e 16 30
e 16 32
e 16 35
e 16 36
e 16 37
e 16 47
e 16 52
e 16 58
e 16 62
e 16 68
e 16 70
e 16 73
e 16 75
e 16 77
e 16 80
e 16 85
e 16 88
e 16 89
e 16 95
e 16 99
e 16 106
e 16 108
e 16 110
e 16 111
e 16 116
e 16 123
e 16 126
e 16 137
e 16 139
e 16 142
e 16 143
e 16 156
e 16 180
e 17 18
e 17 19
e 17 20
e 17 21
e 17 22
e 17 23
e 17 24
e 17 25
e 17 26
e 17 27
e 17 28
e 17 29
e 17 30
e 17 31
e 17 32
e 17 33
e 17 34
e 17 35
e 17 36
e 17 37
e 17 38
e 17 39
e 17 40
e 17 41
e 17 42
e 17 43
e 17 44
e 17 46
e 17 48
e 17 49
e 17 50
e 17 53
e 17 54
e 17 55
e 17 58
e 17 59
e 17 61
e 17 62
e 17 66
e 17 67
e 17 70
e 17 72
e 17 73
e 17 74
e 17 78
e 17 81
e 17 84
e 17 87
e 17 88
e 17 91
e 17 92
e 17 97
e 17 98
e 17 100
e 17 101
e 17 102
e 17 104
e 17 115
e 17 117
e 17 124
e 17 127
e 17 131
e 17 134
e 17 141
e 17 144
e 17 145
e 17 147
e 17 166
e 17 174
e 17 176
e 17 177
e 17 185
e 17 186
e 18 19
e 18 20
e 18 21
e 18 22
e 18 23
e 18 24
e 18 25
e 18 26
e 18 29
e 18 30
e 18 31
e 18 32
e 18 33
e 18 34
e 18 35
e 18 36
e 18 37
e 18 38
e 18 39
e 18 40
e 18 41
e 18 44
e 18 46
e 18 47
e 18 48
e 18 54
e 18 59
e 18 60
e 18 61
e 18 63
e 18 66
e 18 67
e 18 69
e 18 70
e 18 71
e 18 72
e 18 75
e 18 76
e 18 77
e 18 78
e 18 81
e 18 82
e 18 84
e 18 85
e 18 89
e 18 91
e 18 92
e 18 95
e 18 97
e 18 100
e 18 102
e 18 103
e 18 104
e 18 105
e 18 107
e 18 114
e 18 116
e 18 117
e 18 118
e 18 119
e 18 121
e 18 124
e 18 126
e 18 127
e 18 130
e 18 131
e 18 133
e 18 138
e 18 143
e 18 145
e 18 155
e 18 156
e 18 157
e 18 159
e 18 161
e 18 162
e 18 163
e 18 166
e 18 168
e 18 169
e 18 174
e 18 178
e 18 180
e 18 190
e 18 193
e 18 195
e 19 20
e 19 21
e 19 22
e 19 23
e 19 24
e 19 25
e 19 26
e 19 27
e 19 28
e 19 29
e 19 30
e 19 32
e 19 33
e 19 35
e 19 36
e 19 38
e 19 39
e 19 41
e 19 46
e 19 47
e 19 48
e 19 49
e 19 50
e 19 51
e 19 55
e 19 56
e 19 57
e 19 60
e 19 62
e 19 63
e 19 65
e 19 67
e 19 69
e 19 72
e 19 74
e 19 79
e 19 82
e 19 83
e 19 85
e 19 87
e 19 89
e 19 94
e 19 96
e 19 98
e 19 102
e 19 105
e 19 108
e 19 116
e 19 120
e 19 121
e 19 125
e 19 127
e 19 129
e 19 136
e 19 139
e 19 140
e 19 147
e 19 152
e 19 155
e 19 157
e 19 159
e 19 160
e 19 167
e 19 168
e 19 170
e 19 174
e 19 175
e 19 177
e 19 181
e 19 185
e 19 190
e 19 194
e 20 21
e 20 22
e 20 23
e 20 24
e 20 25
e 20 26
e 20 27
e 20 29
e 20 31
e 20 32
e 20 33
e 20 35
e 20 37
e 20 38
e 20 44
e 20 47
e 20 48
e 20 51
e 20 52
e 20 53
e 20 57
e 20 60
e 20 64
e 20 65
e 20 73
e 20 74
e 20 81
e 20 84
e 20 85
e 20 94
e 20 105
e 20 109
e 20 113
e 20 116
e 20 119
e 20 122
e 20 126
e 20 130
e 20 134
e 20 135
e 20 143
e 20 145
e 20 147
e 20 148
e 20 154
e 20 157
e 20 159
e 20 166
e 20 167
e 20 179
e 20 186
e 20 187
e 21 22
e 21 23
e 21 24
e 21 25
e 21 26
e 21 27
e 21 29
e 21 30
e 21 31
e 21 33
e 21 34
e 21 35
e 21 37
e 21 38
e 21 40
e 21 44
e 21 45
e 21 46
e 21 52
e 21 54
e 21 55
e 21 56
e 21 58
e 21 59
e 21 61
e 21 63
e 21 70
e 21 73
e 21 74
e 21 76
e 21 80
e 21 86
e 21 88
e 21 89
e 21 93
e 21 94
e 21 100
e 21 104
e 21 108
e 21 109
e 21 110
e 21 118
e 21 120
e 21 121
e 21 122
e 21 127
e 21 128
e 21 129
e 21 139
e 21 143
e 21 146
e 21 147
e 21 150
e 21 151
e 21 156
e 21 162
e 21 174
e 21 178
e 21 179
e 21 187
e 21 190
e 21 196
e 22 23
e 22 24
e 22 25
e 22 26
e 22 27
e 22 28
e 22 29
e 22 30
e 22 31
e 22 32
e 22 33
e 22 34
e 22 35
e 22 37
e 22 38
e 22 41
e 22 42
e 22 46
e 22 47
e 22 50
e 22 52
e 22 54
e 22 57
e 22 59
e 22 60
e 22 63
e 22 67
e 22 68
e 22 69
e 22 75
e 22 76
e 22 77
e 22 78
e 22 85
e 22 90
e 22 91
e 22 92
e 22 113
e 22 115
e 22 121
e 22 123
e 22 127
e 22 130
e 22 132
e 22 133
e 22 138
e 22 139
e 22 140
e 22 141
e 22 147
e 22 150
e 22 151
e 22 153
e 22 155
e 22 164
e 22 174
e 22 177
e 22 187
e 22 189
e 22 193
e 22 194
e 22 195
e 23 24
e 23 25
e 23 26
e 23 27
e 23 28
e 23 31
e 23 35
e 23 41
e 23 47
e 23 48
e 23 49
e 23 55
e 23 58
e 23 63
e 23 68
e 23 70
e 23 71
e 23 73
e 23 76
e 23 93
e 23 94
e 23 98
e 23 106
e 23 120
e 23 122
e 23 140
e 23 144
e 23 149
e 23 152
e 23 154
e 23 158
e 23 166
e 23 180
e 23 186
e 24 25
e 24 26
e 24 28
e 24 29
e 24 30
e 24 31
e 24 32
e 24 34
e 24 35
e 24 36
e 24 38
e 24 40
e 24 41
e 24 42
e 24 43
e 24 44
e 24 45
e 24 46
e 24 50
e 24 55
e 24 56
e 24 59
e 24 61
e 24 62
e 24 70
e 24 71
e 24 72
e 24 73
e 24 84
e 24 93
e 24 96
e 24 97
e 24 101
e 24 107
e 24 114
e 24 117
e 24 119
e 24 121
e 24 122
e 24 123
e 24 124
e 24 134
e 24 142
e 24 154
e 24 161
e 24 163
e 24 171
e 24 176
e 24 180
e 24 191
e 25 26
e 25 27
e 25 28
e 25 29
e 25 33
e 25 36
e 25 37
e 25 38
e 25 42
e 25 43
e 25 47
e 25 52
e 25 54
e 25 56
e 25 57
e 25 58
e 25 60
e 25 66
e 25 73
e 25 76
e 25 81
e 25 85
e 25 86
e 25 87
e 25 89
e 25 91
e 25 102
e 25 115
e 25 120
e 25 131
e 25 133
e 25 135
e 25 139
e 25 140
e 25 142
e 25 144
e 25 145
e 25 148
e 25 152
e 25 154
e 25 155
e 25 161
e 25 173
e 25 174
e 25 181
e 25 185
e 25 186
e 25 187
e 26 27
e 26 29
e 26 30
e 26 31
e 26 34
e 26 37
e 26 38
e 26 39
e 26 41
e 26 49
e 26 50
e 26 51
e 26 53
e 26 55
e 26 59
e 26 64
e 26 66
e 26 68
e 26 71
e 26 77
e 26 80
e 26 82
e 26 83
e 26 93
e 26 100
e 26 102
e 26 103
e 26 106
e 26 108
e 26 109
e 26 110
e 26 114
e 26 117
e 26 135
e 26 138
e 26 142
e 26 149
e 26 155
e 26 159
e 26 162
e 26 164
e 26 172
e 26 188
e 26 192
e 26 193
e 27 28
e 27 30
e 27 31
e 27 32
e 27 33
e 27 35
e 27 36
e 27 38
e 27 41
e 27 43
e 27 49
e 27 53
e 27 54
e 27 57
e 27 58
e 27 59
e 27 60
e 27 64
e 27 70
e 27 76
e 27 77
e 27 83
e 27 87
e 27 89
e 27 93
e 27 94
e 27 96
e 27 99
e 27 104
e 27 111
e 27 112
e 27 113
e 27 115
e 27 130
e 27 132
e 27 136
e 27 142
e 27 146
e 27 147
e 27 148
e 27 164
e 27 169
e 27 171
e 27 194
e 28 29
e 28 31
e 28 34
e 28 37
e 28 39
e 28 40
e 28 41
e 28 42
e 28 43
e 28 45
e 28 49
e 28 50
e 28 51
e 28 56
e 28 58
e 28 61
e 28 63
e 28 66
e 28 67
e 28 79
e 28 80
e 28 84
e 28 85
e 28 88
e 28 89
e 28 99
e 28 101
e 28 103
e 28 106
e 28 108
e 28 110
e 28 111
e 28 113
e 28 116
e 28 119
e 28 120
e 28 124
e 28 150
e 28 151
e 28 171
e 28 179
e 28 189
e 28 194
e 29 32
e 29 37
e 29 40
e 29 48
e 29 49
e 29 51
e 29 53
e 29 55
e 29 57
e 29 61
e 29 62
e 29 63
e 29 64
e 29 79
e 29 86
e 29 89
e 29 112
e 29 114
e 29 136
e 29 150
e 29 151
e 29 153
e 29 154
e 29 156
e 29 163
e 29 175
e 29 180
e 29 181
e 29 184
e 30 32
e 30 33
e 30 34
e 30 35
e 30 40
e 30 41
e 30 45
e 30 46
e 30 47
e 30 49
e 30 60
e 30 64
e 30 66
e 30 71
e 30 72
e 30 77
e 30 81
e 30 89
e 30 98
e 30 100
e 30 101
e 30 102
e 30 103
e 30 105
e 30 107
e 30 109
e 30 115
e 30 116
e 30 118
e 30 122
e 30 126
e 30 127
e 30 131
e 30 134
e 30 136
e 30 141
e 30 147
e 30 148
e 30 150
e 30 151
e 30 158
e 30 168
e 30 172
e 30 175
e 30 185
e 30 187
e 30 188
e 30 189
e 30 195
e 31 32
e 31 33
e 31 39
e 31 40
e 31 41
e 31 48
e 31 51
e 31 52
e 31 54
e 31 55
e 31 59
e 31 60
e 31 63
e 31 65
e 31 68
e 31 70
e 31 76
e 31 81
e 31 82
e 31 83
e 31 87
e 31 88
e 31 90
e 31 110
e 31 115
e 31 124
e 31 138
e 31 140
e 31 143
e 31 146
e 31 150
e 31 152
e 31 155
e 31 158
e 31 165
e 31 166
e 31 170
e 31 173
e 31 181
e 31 184
e 31 185
e 31 191
e 31 192
e 31 195
e 31 196
e 32 34
e 32 36
e 32 43
e 32 45
e 32 50
e 32 51
e 32 52
e 32 54
e 32 55
e 32 57
e 32 68
e 32 72
e 32 78
e 32 79
e 32 82
e 32 87
e 32 93
e 32 105
e 32 109
e 32 129
e 32 139
e 32 149
e 32 154
e 32 158
e 32 161
e 32 167
e 32 170
e 32 175
e 33 36
e 33 38
e 33 39
e 33 40
e 33 41
e 33 44
e 33 46
e 33 50
e 33 53
e 33 56
e 33 65
e 33 75
e 33 88
e 33 94
e 33 96
e 33 102
e 33 109
e 33 110
e 33 118
e 33 121
e 33 129
e 33 141
e 33 144
e 33 145
e 33 148
e 33 159
e 33 160
e 33 181
e 34 35
e 34 36
e 34 37
e 34 38
e 34 42
e 34 43
e 34 45
e 34 48
e 34 51
e 34 52
e 34 53
e 34 58
e 34 63
e 34 65
e 34 69
e 34 71
e 34 75
e 34 80
e 34 81
e 34 83
e 34 91
e 34 95
e 34 99
e 34 106
e 34 114
e 34 116
e 34 122
e 34 129
e 34 143
e 34 145
e 34 146
e 34 148
e 34 159
e 34 169
e 34 177
e 34 181
e 34 186
e 35 36
e 35 37
e 35 39
e 35 40
e 35 44
e 35 45
e 35 47
e 35 48
e 35 49
e 35 52
e 35 53
e 35 54
e 35 55
e 35 56
e 35 59
e 35 64
e 35 68
e 35 76
e 35 77
e 35 86
e 35 87
e 35 88
e 35 95
e 35 100
e 35 103
e 35 110
e 35 113
e 35 114
e 35 124
e 35 127
e 35 131
e 35 138
e 35 144
e 35 150
e 35 154
e 35 155
e 35 157
e 35 162
e 35 166
e 35 171
e 35 183
e 35 186
e 35 195
e 36 41
e 36 43
e 36 45
e 36 47
e 36 50
e 36 52
e 36 53
e 36 56
e 36 57
e 36 60
e 36 62
e 36 63
e 36 64
e 36 66
e 36 67
e 36 69
e 36 77
e 36 78
e 36 80
e 36 86
e 36 87
e 36 91
e 36 96
e 36 97
e 36 99
e 36 101
e 36 106
e 36 111
e 36 112
e 36 119
e 36 120
e 36 122
e 36 136
e 36 142
e 36 146
e 36 167
e 36 168
e 36 171
e 36 172
e 36 174
e 36 178
e 36 179
e 36 186
e 37 38
e 37 39
e 37 44
e 37 47
e 37 48
e 37 51
e 37 56
e 37 57
e 37 60
e 37 68
e 37 70
e 37 73
e 37 74
e 37 85
e 37 86
e 37 89
e 37 91
e 37 95
e 37 98
e 37 99
e 37 101
e 37 112
e 37 116
e 37 117
e 37 118
e 37 122
e 37 127
e 37 134
e 37 136
e 37 157
e 37 161
e 37 163
e 37 164
e 37 165
e 37 169
e 37 171
e 37 177
e 37 181
e 38 39
e 38 40
e 38 42
e 38 43
e 38 44
e 38 45
e 38 50
e 38 51
e 38 53
e 38 54
e 38 55
e 38 57
e 38 60
e 38 61
e 38 62
e 38 69
e 38 70
e 38 72
e 38 77
e 38 79
e 38 84
e 38 85
e 38 88
e 38 95
e 38 98
e 38 101
e 38 108
e 38 110
e 38 113
e 38 114
e 38 115
e 38 140
e 38 142
e 38 144
e 38 160
e 38 162
e 38 173
e 38 178
e 38 186
e 39 41
e 39 45
e 39 47
e 39 49
e 39 50
e 39 51
e 39 54
e 39 56
e 39 63
e 39 64
e 39 68
e 39 72
e 39 74
e 39 81
e 39 83
e 39 84
e 39 87
e 39 92
e 39 95
e 39 100
e 39 101
e 39 103
e 39 107
e 39 116
e 39 132
e 39 135
e 39 142
e 39 145
e 39 149
e 39 155
e 39 163
e 39 165
e 39 167
e 39 171
e 39 175
e 39 191
e 39 192
e 39 194
e 39 195
e 40 43
e 40 46
e 40 49
e 40 51
e 40 54
e 40 56
e 40 59
e 40 61
e 40 63
e 40 65
e 40 66
e 40 69
e 40 76
e 40 77
e 40 78
e 40 79
e 40 81
e 40 83
e 40 86
e 40 92
e 40 98
e 40 102
e 40 105
e 40 108
e 40 109
e 40 112
e 40 119
e 40 120
e 40 132
e 40 133
e 40 134
e 40 135
e 40 139
e 40 150
e 40 154
e 40 158
e 40 164
e 40 166
e 40 171
e 40 172
e 40 180
e 40 190
e 40 191
e 40 195
e 40 196
e 41 42
e 41 44
e 41 46
e 41 48
e 41 49
e 41 59
e 41 63
e 41 64
e 41 68
e 41 71
e 41 72
e 41 74
e 41 75
e 41 76
e 41 79
e 41 80
e 41 83
e 41 91
e 41 96
e 41 100
e 41 119
e 41 126
e 41 128
e 41 129
e 41 158
e 41 160
e 41 165
e 41 166
e 41 167
e 41 176
e 41 183
e 41 194
e 42 43
e 42 45
e 42 63
e 42 74
e 42 75
e 42 87
e 42 99
e 42 101
e 42 118
e 42 125
e 42 132
e 42 153
e 42 155
e 42 162
e 42 166
e 42 167
e 42 176
e 42 182
e 42 188
e 43 44
e 43 45
e 43 48
e 43 51
e 43 55
e 43 58
e 43 60
e 43 61
e 43 62
e 43 67
e 43 71
e 43 78
e 43 80
e 43 83
e 43 88
e 43 90
e 43 91
e 43 96
e 43 126
e 43 141
e 43 159
e 43 161
e 43 162
e 43 163
e 43 165
e 43 182
e 43 188
e 43 196
e 44 45
e 44 46
e 44 48
e 44 52
e 44 53
e 44 56
e 44 64
e 44 67
e 44 74
e 44 77
e 44 80
e 44 82
e 44 99
e 44 110
e 44 112
e 44 130
e 44 138
e 44 145
e 44 149
e 44 167
e 44 173
e 44 184
e 45 46
e 45 50
e 45 57
e 45 60
e 45 61
e 45 66
e 45 67
e 45 69
e 45 75
e 45 81
e 45 87
e 45 97
e 45 101
e 45 102
e 45 103
e 45 104
e 45 110
e 45 112
e 45 122
e 45 126
e 45 129
e 45 130
e 45 132
e 45 141
e 45 149
e 45 190
e 46 50
e 46 59
e 46 64
e 46 67
e 46 73
e 46 84
e 46 98
e 46 108
e 46 117
e 46 126
e 46 127
e 46 153
e 46 156
e 46 158
e 46 166
e 46 168
e 46 172
e 46 177
e 46 186
e 46 193
e 47 50
e 47 55
e 47 58
e 47 70
e 47 74
e 47 84
e 47 85
e 47 86
e 47 95
e 47 107
e 47 118
e 47 133
e 47 145
e 47 147
e 47 158
e 47 171
e 47 173
e 48 49
e 48 55
e 48 56
e 48 64
e 48 65
e 48 66
e 48 69
e 48 78
e 48 84
e 48 93
e 48 97
e 48 102
e 48 106
e 48 107
e 48 111
e 48 118
e 48 139
e 48 142
e 48 152
e 48 153
e 48 169
e 48 173
e 48 187
e 48 196
e 49 60
e 49 61
e 49 62
e 49 68
e 49 73
e 49 77
e 49 82
e 49 83
e 49 86
e 49 90
e 49 96
e 49 100
e 49 114
e 49 120
e 49 146
e 49 153
e 49 165
e 50 52
e 50 58
e 50 59
e 50 62
e 50 68
e 50 72
e 50 74
e 50 78
e 50 79
e 50 80
e 50 88
e 50 92
e 50 97
e 50 101
e 50 104
e 50 105
e 50 107
e 50 108
e 50 123
e 50 124
e 50 132
e 50 133
e 50 138
e 50 153
e 50 163
e 50 186
e 51 65
e 51 70
e 51 88
e 51 89
e 51 94
e 51 103
e 51 108
e 51 112
e 51 121
e 51 133
e 51 141
e 51 142
e 51 147
e 51 159
e 51 167
e 52 53
e 52 56
e 52 65
e 52 70
e 52 73
e 52 74
e 52 76
e 52 78
e 52 80
e 52 82
e 52 86
e 52 87
e 52 89
e 52 92
e 52 120
e 52 131
e 52 137
e 52 146
e 52 165
e 52 169
e 52 177
e 52 181
e 52 193
e 53 56
e 53 61
e 53 62
e 53 68
e 53 69
e 53 88
e 53 91
e 53 96
e 53 98
e 53 107
e 53 118
e 53 124
e 53 137
e 53 176
e 54 66
e 54 67
e 54 69
e 54 71
e 54 72
e 54 75
e 54 77
e 54 79
e 54 80
e 54 81
e 54 83
e 54 85
e 54 90
e 54 97
e 54 99
e 54 100
e 54 112
e 54 113
e 54 114
e 54 115
e 54 122
e 54 123
e 54 127
e 54 133
e 54 134
e 54 139
e 54 146
e 54 156
e 54 158
e 54 167
e 54 168
e 54 172
e 54 173
e 54 182
e 54 187
e 55 56
e 55 64
e 55 73
e 55 85
e 55 94
e 55 102
e 55 104
e 55 112
e 55 148
e 55 150
e 55 165
e 55 193
e 55 196
e 56 59
e 56 65
e 56 73
e 56 74
e 56 81
e 56 87
e 56 122
e 56 146
e 56 154
e 56 157
e 56 169
e 57 62
e 57 65
e 57 70
e 57 84
e 57 93
e 57 99
e 57 107
e 57 113
e 57 134
e 57 139
e 57 167
e 57 169
e 57 179
e 57 184
e 57 185
e 58 62
e 58 63
e 58 66
e 58 71
e 58 72
e 58 97
e 58 103
e 58 105
e 58 117
e 58 118
e 58 125
e 58 127
e 58 130
e 58 157
e 58 159
e 58 162
e 58 163
e 58 182
e 59 60
e 59 68
e 59 75
e 59 78
e 59 82
e 59 85
e 59 98
e 59 105
e 59 110
e 59 115
e 59 117
e 59 118
e 59 120
e 59 131
e 59 136
e 59 140
e 59 147
e 59 153
e 59 169
e 59 187
e 59 188
e 60 62
e 60 69
e 60 82
e 60 97
e 60 104
e 60 106
e 60 116
e 60 125
e 60 127
e 60 135
e 60 137
e 60 140
e 60 144
e 60 146
e 60 172
e 60 176
e 60 183
e 60 189
e 60 194
e 61 65
e 61 68
e 61 73
e 61 81
e 61 94
e 61 96
e 61 115
e 61 129
e 61 134
e 61 140
e 61 146
e 61 171
e 61 174
e 61 195
e 62 64
e 62 65
e 62 71
e 62 76
e 62 90
e 62 106
e 62 111
e 62 146
e 62 151
e 62 176
e 62 192
e 63 65
e 63 69
e 63 72
e 63 74
e 63 83
e 63 89
e 63 104
e 63 119
e 63 121
e 63 131
e 63 147
e 63 158
e 63 159
e 63 164
e 63 168
e 63 182
e 63 183
e 63 186
e 64 71
e 64 75
e 64 76
e 64 77
e 64 81
e 64 90
e 64 91
e 64 107
e 64 117
e 64 123
e 64 128
e 64 143
e 64 144
e 64 153
e 64 154
e 64 173
e 64 175
e 65 88
e 65 94
e 65 100
e 65 143
e 65 152
e 65 165
e 65 182
e 65 184
e 65 189
e 66 68
e 66 75
e 66 78
e 66 80
e 66 95
e 66 96
e 66 101
e 66 113
e 66 114
e 66 117
e 66 119
e 66 130
e 66 131
e 66 133
e 66 134
e 66 143
e 66 152
e 66 158
e 66 162
e 66 188
e 66 189
e 67 69
e 67 75
e 67 86
e 67 96
e 67 102
e 67 113
e 67 117
e 67 120
e 67 142
e 67 145
e 67 149
e 67 183
e 67 191
e 68 79
e 68 82
e 68 86
e 68 92
e 68 98
e 68 106
e 68 111
e 68 114
e 68 131
e 68 134
e 68 145
e 68 155
e 68 157
e 68 170
e 68 177
e 68 180
e 68 190
e 69 83
e 69 92
e 69 122
e 69 137
e 69 160
e 69 166
e 69 170
e 69 173
e 69 175
e 69 179
e 69 187
e 70 75
e 70 79
e 70 87
e 70 90
e 70 92
e 70 93
e 70 95
e 70 97
e 70 102
e 70 108
e 70 109
e 70 111
e 70 121
e 70 125
e 70 132
e 70 138
e 70 145
e 70 152
e 70 165
e 70 171
e 70 173
e 70 174
e 70 178
e 70 189
e 70 190
e 70 193
e 71 76
e 71 89
e 71 97
e 71 133
e 71 144
e 71 154
e 71 169
e 72 79
e 72 92
e 72 109
e 72 112
e 72 117
e 72 131
e 72 135
e 72 148
e 72 176
e 72 181
e 73 80
e 73 84
e 73 93
e 73 99
e 73 110
e 73 116
e 73 124
e 73 129
e 73 146
e 73 156
e 73 158
e 73 161
e 73 181
e 74 75
e 74 82
e 74 86
e 74 88
e 74 93
e 74 103
e 74 111
e 74 116
e 74 126
e 74 127
e 74 132
e 74 135
e 74 140
e 74 151
e 74 156
e 74 170
e 74 196
e 75 80
e 75 92
e 75 108
e 75 123
e 75 126
e 75 129
e 75 140
e 75 143
e 75 164
e 76 77
e 76 79
e 76 82
e 76 85
e 76 90
e 76 91
e 76 94
e 76 95
e 76 103
e 76 111
e 76 112
e 76 117
e 76 127
e 76 132
e 76 150
e 76 151
e 76 156
e 76 158
e 76 160
e 76 167
e 76 194
e 76 196
e 77 78
e 77 84
e 77 90
e 77 106
e 77 107
e 77 130
e 77 138
e 77 145
e 77 152
e 77 155
e 77 182
e 77 183
e 78 82
e 78 85
e 78 87
e 78 97
e 78 105
e 78 106
e 78 113
e 78 121
e 78 124
e 78 135
e 78 137
e 78 168
e 78 170
e 78 184
e 78 195
e 79 88
e 79 101
e 79 104
e 79 108
e 79 120
e 79 123
e 79 125
e 79 134
e 79 138
e 79 167
e 79 170
e 79 180
e 79 183
e 79 189
e 79 196
e 80 82
e 80 86
e 80 90
e 80 100
e 80 111
e 80 116
e 80 126
e 80 128
e 80 143
e 80 151
e 80 155
e 80 184
e 80 186
e 81 87
e 81 105
e 81 118
e 81 131
e 81 136
e 81 155
e 81 183
e 81 191
e 81 192
e 81 195
e 82 94
e 82 100
e 82 107
e 82 112
e 82 119
e 82 121
e 82 136
e 82 148
e 82 150
e 82 151
e 82 190
e 83 91
e 83 92
e 83 112
e 83 115
e 83 151
e 83 170
e 83 172
e 83 190
e 84 93
e 84 96
e 84 100
e 84 102
e 84 104
e 84 118
e 84 122
e 84 124
e 84 125
e 84 126
e 84 141
e 84 151
e 84 170
e 84 185
e 84 189
e 84 191
e 85 101
e 85 103
e 85 125
e 85 133
e 85 152
e 85 161
e 85 180
e 85 186
e 85 189
e 85 192
e 86 95
e 86 96
e 86 123
e 86 128
e 86 154
e 86 156
e 86 163
e 86 168
e 86 178
e 86 194
e 87 94
e 87 99
e 87 105
e 87 109
e 87 113
e 87 114
e 87 136
e 87 137
e 87 142
e 87 149
e 87 150
e 87 170
e 87 181
e 87 182
e 87 183
e 88 122
e 88 139
e 88 144
e 88 151
e 88 152
e 88 161
e 88 186
e 88 193
e 89 90
e 89 91
e 89 92
e 89 111
e 89 118
e 89 128
e 89 135
e 89 169
e 89 182
e 89 184
e 89 185
e 90 109
e 90 111
e 90 128
e 90 162
e 90 175
e 91 95
e 91 98
e 91 116
e 91 128
e 91 138
e 91 142
e 91 144
e 91 171
e 91 186
e 92 103
e 92 105
e 92 107
e 92 120
e 92 149
e 92 179
e 92 182
e 93 95
e 93 98
e 93 104
e 93 106
e 93 109
e 93 110
e 93 119
e 93 134
e 93 164
e 93 174
e 93 180
e 93 188
e 93 191
e 94 95
e 94 96
e 94 114
e 94 123
e 95 162
e 95 163
e 96 105
e 96 108
e 96 120
e 96 141
e 96 160
e 96 177
e 97 98
e 97 99
e 97 103
e 97 118
e 97 125
e 97 130
e 97 132
e 97 137
e 97 141
e 97 143
e 97 160
e 97 161
e 97 175
e 97 183
e 97 194
e 98 114
e 98 125
e 98 137
e 98 153
e 98 157
e 98 165
e 98 187
e 98 192
e 99 103
e 99 105
e 99 109
e 99 119
e 99 129
e 99 139
e 99 148
e 99 149
e 99 191
e 100 123
e 100 145
e 101 110
e 101 115
e 101 129
e 101 171
e 101 174
e 102 114
e 102 116
e 102 126
e 102 130
e 102 132
e 102 136
e 102 140
e 102 142
e 102 147
e 102 150
e 102 160
e 102 173
e 102 174
e 102 175
e 102 192
e 103 115
e 103 122
e 103 128
e 103 129
e 103 140
e 103 143
e 103 162
e 104 115
e 104 124
e 104 127
e 104 132
e 104 143
e 104 179
e 104 184
e 105 123
e 105 125
e 105 129
e 105 138
e 106 121
e 106 130
e 106 165
e 106 167
e 107 117
e 107 129
e 107 146
e 107 148
e 107 153
e 107 188
e 107 190
e 107 193
e 108 119
e 108 123
e 108 133
e 108 140
e 108 149
e 108 158
e 108 168
e 108 178
e 108 179
e 108 193
e 109 123
e 109 126
e 109 133
e 109 139
e 109 194
e 109 196
e 110 128
e 110 151
e 110 156
e 110 163
e 110 164
e 110 169
e 110 181
e 110 187
e 111 128
e 111 134
e 111 155
e 111 170
e 111 171
e 111 181
e 111 182
e 112 114
e 112 168
e 112 178
e 112 193
e 113 148
e 113 160
e 113 163
e 114 139
e 114 141
e 114 161
e 115 126
e 115 136
e 115 148
e 115 149
e 115 154
e 115 164
e 115 192
e 116 136
e 116 156
e 116 175
e 116 177
e 116 192
e 117 139
e 117 148
e 117 178
e 117 190
e 118 131
e 118 155
e 118 175
e 118 177
e 118 187
e 119 120
e 119 133
e 119 137
e 119 140
e 119 152
e 119 157
e 120 121
e 120 164
e 120 167
e 120 176
e 120 178
e 120 183
e 121 132
e 121 133
e 121 137
e 121 141
e 121 142
e 121 160
e 121 168
e 121 175
e 121 178
e 122 134
e 122 147
e 122 153
e 122 156
e 123 125
e 123 138
e 123 141
e 123 144
e 123 167
e 123 180
e 123 182
e 123 194
e 124 143
e 124 149
e 124 184
e 124 188
e 124 191
e 125 156
e 125 157
e 125 166
e 125 193
e 126 158
e 126 163
e 126 174
e 126 185
e 126 196
e 127 135
e 127 136
e 127 137
e 127 159
e 127 172
e 127 178
e 127 191
e 128 138
e 129 131
e 129 136
e 129 146
e 129 187
e 129 192
e 130 133
e 130 173
e 130 177
e 131 137
e 131 191
e 132 135
e 132 141
e 132 144
e 132 192
e 133 141
e 133 145
e 133 152
e 133 156
e 133 172
e 133 190
e 133 196
e 134 163
e 134 179
e 135 188
e 136 144
e 136 149
e 136 172
e 137 145
e 137 160
e 137 184
e 137 185
e 138 149
e 138 163
e 139 157
e 140 150
e 140 160
e 140 166
e 140 176
e 140 191
e 141 159
e 141 173
e 141 177
e 142 148
e 142 156
e 142 161
e 142 173
e 142 178
e 142 184
e 143 185
e 144 148
e 144 176
e 145 162
e 145 183
e 146 179
e 146 195
e 147 161
e 147 164
e 147 176
e 148 151
e 148 182
e 149 174
e 149 182
e 150 161
e 150 174
e 150 180
e 150 190
e 151 152
e 151 158
e 151 175
e 152 157
e 152 162
e 152 176
e 152 188
e 153 154
e 153 155
e 153 159
e 154 157
e 154 164
e 154 165
e 154 173
e 154 190
e 155 159
e 155 166
e 155 183
e 156 168
e 157 179
e 158 171
e 158 175
e 158 185
e 158 187
e 159 165
e 159 193
e 160 177
e 160 179
e 161 181
e 161 184
e 161 189
e 161 195
e 162 170
e 162 185
e 162 191
e 162 196
e 163 168
e 164 174
e 164 177
e 165 184
e 166 172
e 166 178
e 166 191
e 167 176
e 167 190
e 168 169
e 168 188
e 169 170
e 169 183
e 169 192
e 170 178
e 171 185
e 172 173
e 172 180
e 172 196
e 174 180
e 175 180
e 175 190
e 176 185
e 176 195
e 177 196
e 178 183
e 180 187
e 180 191
e 180 194
e 182 188
e 182 196
e 185 195
e 186 188
e 186 189
e 187 192
e 189 195
